148 147 11 151 178 86 176 126 173 134 181 75 137 84 157 102 120 187 6 5 107 194 49 162 42 198 68 93 2 8 199 65 163 172 133 185 106 52 105 160 9 116 73 166 118 111 108 17 129 161 154 171 142 80 31 67 92 150 127 122 156 167 48 140 144 153 132 24 59 43 27 121 41 91 186 0 38 193 183 119 1 47 63 196 115 146 85 72 50 37 51 45 138 195 7 97 64 13 44 56 104 103 33 46 88 179 25 20 174 39 117 109 110 60 30 152 98 130 57 168 74 139 36 188 28 22 32 99 125 21 78 159 136 77 76 197 112 14 131 169 83 184 66 69 180 54 70 35 95 128 114 4 177 164 40 87 143 58 16 96 135 55 191 170 165 53 19 89 123 23 15 192 29 26 10 3 71 62 189 182 90 175 12 34 113 81 82 100 79 149 18 94 158 101 190 145 155 141 61 124 

